nN = 8;
nR = 40;
nH = 2;

a = [[15, 15, 25, 25, 24, 21, 16, 19, 20, 17, 24, 24, 19, 20, 20, 20, 22, 17, 20, 15, 17, 17, 20, 15, 18, 19, 25, 18, 16, 16, 16, 25, 16, 20, 22, 25, 24, 25, 15, 21], [20, 18, 17, 18, 17, 15, 25, 23, 16, 23, 17, 15, 21, 17, 21, 23, 24, 19, 18, 24, 22, 20, 18, 18, 22, 15, 17, 19, 25, 20, 19, 22, 22, 23, 25, 22, 19, 24, 21, 18], [25, 20, 20, 25, 15, 17, 20, 17, 17, 18, 22, 18, 21, 17, 21, 21, 20, 25, 23, 15, 16, 24, 22, 17, 23, 25, 15, 25, 24, 23, 16, 24, 20, 18, 23, 24, 17, 25, 19, 20], [21, 21, 17, 25, 20, 18, 15, 20, 22, 21, 22, 17, 24, 25, 25, 23, 20, 16, 17, 20, 19, 25, 22, 15, 18, 18, 23, 15, 18, 15, 22, 18, 25, 18, 16, 21, 22, 17, 19, 23], [17, 19, 16, 20, 16, 22, 16, 15, 21, 22, 23, 23, 20, 23, 16, 25, 19, 21, 20, 22, 15, 19, 23, 17, 23, 20, 15, 18, 15, 15, 24, 24, 25, 15, 17, 21, 23, 20, 19, 16], [23, 20, 25, 24, 21, 20, 22, 24, 17, 20, 17, 19, 20, 23, 22, 24, 20, 20, 23, 24, 24, 24, 20, 21, 20, 15, 19, 20, 16, 25, 21, 23, 21, 21, 18, 23, 18, 16, 22, 22], [16, 22, 15, 22, 15, 18, 19, 18, 24, 16, 17, 18, 19, 15, 18, 19, 15, 15, 19, 21, 16, 22, 23, 16, 21, 20, 21, 21, 18, 20, 23, 22, 22, 23, 15, 20, 17, 23, 23, 18], [21, 24, 15, 19, 23, 15, 16, 22, 15, 23, 17, 25, 21, 22, 25, 17, 24, 20, 17, 15, 24, 19, 18, 25, 20, 21, 22, 18, 20, 16, 18, 18, 20, 24, 19, 15, 23, 18, 21, 16]];
c = [[[0, 0, 0, 0, 0, 0, 0, 0, 0, 0, 0, 0, 0, 0, 0, 0, 0, 0, 0, 0, 0, 0, 0, 0, 0, 0, 0, 0, 0, 0, 0, 0, 0, 0, 0, 0, 0, 0, 0, 0], [50, 45, 49, 38, 35, 34, 30, 42, 45, 49, 48, 36, 50, 32, 35, 40, 49, 48, 34, 37, 31, 44, 36, 49, 37, 45, 44, 46, 30, 45, 34, 31, 31, 38, 33, 36, 33, 41, 35, 50], [44, 37, 32, 42, 43, 44, 45, 34, 49, 30, 30, 40, 44, 47, 43, 49, 37, 35, 45, 50, 43, 37, 35, 30, 31, 47, 32, 32, 30, 47, 45, 42, 48, 47, 35, 48, 47, 32, 36, 37], [49, 50, 45, 41, 48, 42, 44, 41, 39, 43, 38, 34, 41, 37, 48, 30, 50, 39, 30, 44, 32, 47, 44, 44, 36, 42, 38, 35, 43, 45, 47, 43, 32, 39, 37, 43, 30, 49, 30, 42], [47, 50, 48, 43, 33, 32, 30, 45, 31, 30, 37, 41, 33, 43, 37, 50, 38, 31, 47, 30, 44, 40, 35, 30, 45, 37, 32, 38, 47, 35, 46, 44, 36, 48, 31, 30, 30, 32, 32, 37], [36, 44, 36, 34, 46, 38, 30, 31, 30, 43, 31, 33, 30, 31, 49, 36, 46, 41, 44, 36, 35, 43, 32, 45, 41, 36, 47, 45, 33, 30, 49, 30, 30, 50, 44, 34, 46, 47, 37, 32], [49, 37, 45, 41, 31, 48, 40, 34, 35, 43, 42, 38, 42, 49, 42, 45, 46, 50, 39, 37, 44, 43, 48, 46, 36, 35, 32, 31, 37, 47, 49, 30, 48, 39, 35, 46, 31, 38, 36, 39], [35, 48, 31, 45, 33, 31, 32, 36, 41, 33, 46, 33, 31, 44, 42, 49, 41, 35, 48, 43, 45, 50, 34, 44, 36, 35, 50, 39, 45, 37, 44, 36, 49, 47, 32, 37, 48, 33, 50, 46]], [[0, 0, 0, 0, 0, 0, 0, 0, 0, 0, 0, 0, 0, 0, 0, 0, 0, 0, 0, 0, 0, 0, 0, 0, 0, 0, 0, 0, 0, 0, 0, 0, 0, 0, 0, 0, 0, 0, 0, 0], [0, 0, 0, 0, 0, 0, 0, 0, 0, 0, 0, 0, 0, 0, 0, 0, 0, 0, 0, 0, 0, 0, 0, 0, 0, 0, 0, 0, 0, 0, 0, 0, 0, 0, 0, 0, 0, 0, 0, 0], [30, 44, 37, 41, 45, 37, 46, 49, 37, 36, 37, 48, 38, 41, 47, 49, 44, 36, 35, 36, 43, 32, 35, 50, 45, 36, 50, 50, 49, 36, 48, 41, 30, 46, 35, 35, 40, 42, 32, 40], [34, 40, 50, 38, 46, 47, 31, 40, 30, 46, 43, 47, 48, 37, 40, 47, 44, 44, 45, 50, 41, 30, 33, 50, 48, 31, 33, 36, 43, 49, 50, 46, 36, 35, 50, 34, 43, 33, 39, 39], [46, 48, 34, 43, 47, 31, 34, 34, 46, 46, 37, 48, 43, 40, 47, 31, 47, 44, 31, 47, 39, 30, 46, 46, 32, 45, 34, 49, 49, 33, 37, 44, 45, 45, 31, 34, 49, 42, 50, 39], [36, 41, 44, 41, 43, 41, 36, 49, 47, 46, 48, 40, 45, 47, 32, 30, 32, 47, 35, 49, 32, 37, 37, 47, 46, 44, 35, 45, 43, 34, 40, 36, 41, 36, 47, 36, 42, 42, 31, 35], [50, 48, 41, 35, 42, 42, 32, 32, 50, 50, 42, 37, 34, 31, 44, 34, 35, 48, 35, 47, 30, 44, 39, 36, 38, 32, 48, 43, 34, 44, 34, 38, 30, 47, 36, 36, 34, 32, 48, 31], [37, 37, 36, 39, 39, 38, 35, 37, 38, 32, 49, 46, 48, 46, 40, 41, 33, 41, 50, 47, 35, 31, 43, 40, 40, 47, 48, 49, 38, 43, 50, 44, 36, 48, 37, 42, 35, 32, 40, 50]], [[0, 0, 0, 0, 0, 0, 0, 0, 0, 0, 0, 0, 0, 0, 0, 0, 0, 0, 0, 0, 0, 0, 0, 0, 0, 0, 0, 0, 0, 0, 0, 0, 0, 0, 0, 0, 0, 0, 0, 0], [0, 0, 0, 0, 0, 0, 0, 0, 0, 0, 0, 0, 0, 0, 0, 0, 0, 0, 0, 0, 0, 0, 0, 0, 0, 0, 0, 0, 0, 0, 0, 0, 0, 0, 0, 0, 0, 0, 0, 0], [0, 0, 0, 0, 0, 0, 0, 0, 0, 0, 0, 0, 0, 0, 0, 0, 0, 0, 0, 0, 0, 0, 0, 0, 0, 0, 0, 0, 0, 0, 0, 0, 0, 0, 0, 0, 0, 0, 0, 0], [46, 34, 35, 35, 43, 46, 30, 41, 40, 38, 32, 33, 42, 41, 38, 35, 48, 33, 44, 38, 36, 33, 36, 45, 43, 36, 43, 48, 34, 31, 41, 40, 43, 33, 48, 37, 34, 40, 37, 48], [30, 38, 35, 43, 32, 37, 42, 32, 36, 41, 44, 37, 43, 49, 33, 43, 50, 49, 42, 44, 45, 35, 50, 48, 45, 40, 50, 47, 45, 37, 46, 49, 32, 34, 34, 40, 31, 43, 37, 37], [30, 38, 31, 36, 49, 47, 35, 44, 40, 46, 38, 35, 31, 31, 45, 37, 36, 41, 49, 31, 42, 47, 45, 45, 34, 48, 32, 34, 48, 47, 48, 47, 47, 37, 49, 37, 37, 42, 45, 42], [47, 46, 30, 45, 44, 39, 30, 30, 44, 37, 37, 30, 44, 33, 31, 45, 44, 40, 32, 41, 35, 36, 48, 34, 30, 31, 34, 43, 32, 38, 45, 46, 44, 49, 50, 37, 33, 43, 45, 47], [39, 50, 34, 43, 41, 33, 32, 42, 34, 35, 42, 49, 46, 41, 48, 32, 41, 35, 45, 33, 36, 44, 33, 36, 46, 45, 41, 48, 34, 31, 41, 43, 30, 39, 41, 44, 48, 34, 34, 39]], [[0, 0, 0, 0, 0, 0, 0, 0, 0, 0, 0, 0, 0, 0, 0, 0, 0, 0, 0, 0, 0, 0, 0, 0, 0, 0, 0, 0, 0, 0, 0, 0, 0, 0, 0, 0, 0, 0, 0, 0], [0, 0, 0, 0, 0, 0, 0, 0, 0, 0, 0, 0, 0, 0, 0, 0, 0, 0, 0, 0, 0, 0, 0, 0, 0, 0, 0, 0, 0, 0, 0, 0, 0, 0, 0, 0, 0, 0, 0, 0], [0, 0, 0, 0, 0, 0, 0, 0, 0, 0, 0, 0, 0, 0, 0, 0, 0, 0, 0, 0, 0, 0, 0, 0, 0, 0, 0, 0, 0, 0, 0, 0, 0, 0, 0, 0, 0, 0, 0, 0], [0, 0, 0, 0, 0, 0, 0, 0, 0, 0, 0, 0, 0, 0, 0, 0, 0, 0, 0, 0, 0, 0, 0, 0, 0, 0, 0, 0, 0, 0, 0, 0, 0, 0, 0, 0, 0, 0, 0, 0], [45, 39, 37, 38, 45, 45, 41, 47, 31, 36, 45, 44, 30, 35, 31, 45, 40, 38, 42, 41, 47, 41, 30, 33, 35, 34, 38, 39, 47, 30, 40, 50, 49, 44, 34, 35, 31, 48, 34, 38], [45, 33, 32, 30, 43, 44, 49, 44, 50, 35, 37, 37, 45, 39, 34, 49, 42, 40, 38, 33, 39, 44, 34, 32, 43, 48, 36, 34, 43, 37, 49, 34, 44, 50, 42, 45, 30, 48, 31, 46], [40, 43, 36, 30, 46, 33, 39, 49, 40, 41, 36, 38, 37, 49, 50, 47, 34, 50, 39, 33, 46, 45, 36, 32, 38, 32, 50, 38, 48, 32, 45, 40, 46, 38, 46, 43, 42, 50, 46, 50], [30, 46, 37, 47, 49, 36, 41, 35, 34, 45, 30, 32, 45, 33, 42, 37, 41, 36, 37, 41, 39, 36, 35, 43, 37, 40, 31, 32, 36, 39, 32, 43, 35, 38, 43, 33, 33, 46, 48, 31]], [[0, 0, 0, 0, 0, 0, 0, 0, 0, 0, 0, 0, 0, 0, 0, 0, 0, 0, 0, 0, 0, 0, 0, 0, 0, 0, 0, 0, 0, 0, 0, 0, 0, 0, 0, 0, 0, 0, 0, 0], [0, 0, 0, 0, 0, 0, 0, 0, 0, 0, 0, 0, 0, 0, 0, 0, 0, 0, 0, 0, 0, 0, 0, 0, 0, 0, 0, 0, 0, 0, 0, 0, 0, 0, 0, 0, 0, 0, 0, 0], [0, 0, 0, 0, 0, 0, 0, 0, 0, 0, 0, 0, 0, 0, 0, 0, 0, 0, 0, 0, 0, 0, 0, 0, 0, 0, 0, 0, 0, 0, 0, 0, 0, 0, 0, 0, 0, 0, 0, 0], [0, 0, 0, 0, 0, 0, 0, 0, 0, 0, 0, 0, 0, 0, 0, 0, 0, 0, 0, 0, 0, 0, 0, 0, 0, 0, 0, 0, 0, 0, 0, 0, 0, 0, 0, 0, 0, 0, 0, 0], [0, 0, 0, 0, 0, 0, 0, 0, 0, 0, 0, 0, 0, 0, 0, 0, 0, 0, 0, 0, 0, 0, 0, 0, 0, 0, 0, 0, 0, 0, 0, 0, 0, 0, 0, 0, 0, 0, 0, 0], [30, 30, 37, 34, 41, 37, 43, 46, 38, 49, 42, 47, 46, 35, 47, 37, 39, 46, 40, 49, 44, 37, 40, 42, 32, 38, 34, 33, 48, 46, 35, 31, 36, 36, 44, 34, 34, 34, 32, 36], [40, 48, 36, 48, 44, 45, 34, 36, 31, 49, 35, 33, 41, 47, 40, 30, 43, 32, 32, 32, 42, 36, 34, 47, 33, 36, 49, 44, 46, 40, 31, 40, 34, 46, 45, 37, 49, 46, 37, 48], [36, 31, 39, 47, 36, 35, 35, 46, 47, 44, 38, 35, 43, 32, 35, 33, 43, 42, 47, 49, 30, 45, 38, 34, 48, 41, 50, 49, 37, 37, 39, 47, 47, 39, 37, 33, 34, 34, 30, 45]], [[0, 0, 0, 0, 0, 0, 0, 0, 0, 0, 0, 0, 0, 0, 0, 0, 0, 0, 0, 0, 0, 0, 0, 0, 0, 0, 0, 0, 0, 0, 0, 0, 0, 0, 0, 0, 0, 0, 0, 0], [0, 0, 0, 0, 0, 0, 0, 0, 0, 0, 0, 0, 0, 0, 0, 0, 0, 0, 0, 0, 0, 0, 0, 0, 0, 0, 0, 0, 0, 0, 0, 0, 0, 0, 0, 0, 0, 0, 0, 0], [0, 0, 0, 0, 0, 0, 0, 0, 0, 0, 0, 0, 0, 0, 0, 0, 0, 0, 0, 0, 0, 0, 0, 0, 0, 0, 0, 0, 0, 0, 0, 0, 0, 0, 0, 0, 0, 0, 0, 0], [0, 0, 0, 0, 0, 0, 0, 0, 0, 0, 0, 0, 0, 0, 0, 0, 0, 0, 0, 0, 0, 0, 0, 0, 0, 0, 0, 0, 0, 0, 0, 0, 0, 0, 0, 0, 0, 0, 0, 0], [0, 0, 0, 0, 0, 0, 0, 0, 0, 0, 0, 0, 0, 0, 0, 0, 0, 0, 0, 0, 0, 0, 0, 0, 0, 0, 0, 0, 0, 0, 0, 0, 0, 0, 0, 0, 0, 0, 0, 0], [0, 0, 0, 0, 0, 0, 0, 0, 0, 0, 0, 0, 0, 0, 0, 0, 0, 0, 0, 0, 0, 0, 0, 0, 0, 0, 0, 0, 0, 0, 0, 0, 0, 0, 0, 0, 0, 0, 0, 0], [43, 37, 49, 33, 47, 37, 39, 35, 50, 38, 50, 41, 30, 30, 35, 47, 49, 46, 44, 45, 50, 33, 47, 41, 40, 44, 40, 44, 42, 45, 46, 33, 44, 30, 38, 41, 34, 37, 40, 47], [39, 36, 33, 43, 47, 40, 42, 42, 46, 46, 45, 36, 41, 48, 37, 46, 48, 45, 39, 49, 43, 48, 38, 49, 31, 50, 49, 44, 47, 35, 40, 45, 37, 42, 50, 39, 47, 46, 47, 32]], [[0, 0, 0, 0, 0, 0, 0, 0, 0, 0, 0, 0, 0, 0, 0, 0, 0, 0, 0, 0, 0, 0, 0, 0, 0, 0, 0, 0, 0, 0, 0, 0, 0, 0, 0, 0, 0, 0, 0, 0], [0, 0, 0, 0, 0, 0, 0, 0, 0, 0, 0, 0, 0, 0, 0, 0, 0, 0, 0, 0, 0, 0, 0, 0, 0, 0, 0, 0, 0, 0, 0, 0, 0, 0, 0, 0, 0, 0, 0, 0], [0, 0, 0, 0, 0, 0, 0, 0, 0, 0, 0, 0, 0, 0, 0, 0, 0, 0, 0, 0, 0, 0, 0, 0, 0, 0, 0, 0, 0, 0, 0, 0, 0, 0, 0, 0, 0, 0, 0, 0], [0, 0, 0, 0, 0, 0, 0, 0, 0, 0, 0, 0, 0, 0, 0, 0, 0, 0, 0, 0, 0, 0, 0, 0, 0, 0, 0, 0, 0, 0, 0, 0, 0, 0, 0, 0, 0, 0, 0, 0], [0, 0, 0, 0, 0, 0, 0, 0, 0, 0, 0, 0, 0, 0, 0, 0, 0, 0, 0, 0, 0, 0, 0, 0, 0, 0, 0, 0, 0, 0, 0, 0, 0, 0, 0, 0, 0, 0, 0, 0], [0, 0, 0, 0, 0, 0, 0, 0, 0, 0, 0, 0, 0, 0, 0, 0, 0, 0, 0, 0, 0, 0, 0, 0, 0, 0, 0, 0, 0, 0, 0, 0, 0, 0, 0, 0, 0, 0, 0, 0], [0, 0, 0, 0, 0, 0, 0, 0, 0, 0, 0, 0, 0, 0, 0, 0, 0, 0, 0, 0, 0, 0, 0, 0, 0, 0, 0, 0, 0, 0, 0, 0, 0, 0, 0, 0, 0, 0, 0, 0], [39, 35, 32, 34, 49, 36, 38, 41, 45, 45, 43, 39, 39, 36, 43, 40, 33, 46, 33, 41, 38, 44, 43, 35, 32, 44, 38, 48, 30, 44, 49, 50, 47, 34, 34, 49, 43, 32, 42, 45]], [[0, 0, 0, 0, 0, 0, 0, 0, 0, 0, 0, 0, 0, 0, 0, 0, 0, 0, 0, 0, 0, 0, 0, 0, 0, 0, 0, 0, 0, 0, 0, 0, 0, 0, 0, 0, 0, 0, 0, 0], [0, 0, 0, 0, 0, 0, 0, 0, 0, 0, 0, 0, 0, 0, 0, 0, 0, 0, 0, 0, 0, 0, 0, 0, 0, 0, 0, 0, 0, 0, 0, 0, 0, 0, 0, 0, 0, 0, 0, 0], [0, 0, 0, 0, 0, 0, 0, 0, 0, 0, 0, 0, 0, 0, 0, 0, 0, 0, 0, 0, 0, 0, 0, 0, 0, 0, 0, 0, 0, 0, 0, 0, 0, 0, 0, 0, 0, 0, 0, 0], [0, 0, 0, 0, 0, 0, 0, 0, 0, 0, 0, 0, 0, 0, 0, 0, 0, 0, 0, 0, 0, 0, 0, 0, 0, 0, 0, 0, 0, 0, 0, 0, 0, 0, 0, 0, 0, 0, 0, 0], [0, 0, 0, 0, 0, 0, 0, 0, 0, 0, 0, 0, 0, 0, 0, 0, 0, 0, 0, 0, 0, 0, 0, 0, 0, 0, 0, 0, 0, 0, 0, 0, 0, 0, 0, 0, 0, 0, 0, 0], [0, 0, 0, 0, 0, 0, 0, 0, 0, 0, 0, 0, 0, 0, 0, 0, 0, 0, 0, 0, 0, 0, 0, 0, 0, 0, 0, 0, 0, 0, 0, 0, 0, 0, 0, 0, 0, 0, 0, 0], [0, 0, 0, 0, 0, 0, 0, 0, 0, 0, 0, 0, 0, 0, 0, 0, 0, 0, 0, 0, 0, 0, 0, 0, 0, 0, 0, 0, 0, 0, 0, 0, 0, 0, 0, 0, 0, 0, 0, 0], [0, 0, 0, 0, 0, 0, 0, 0, 0, 0, 0, 0, 0, 0, 0, 0, 0, 0, 0, 0, 0, 0, 0, 0, 0, 0, 0, 0, 0, 0, 0, 0, 0, 0, 0, 0, 0, 0, 0, 0]]];

q = [[[7, 112], [7, 105], [8, 116], [8, 107], [17, 122], [18, 121], [22, 122], [12, 124], [16, 110], [12, 120], [11, 114], [20, 118], [22, 124], [12, 106], [16, 120], [6, 119], [25, 125], [18, 121], [8, 122], [13, 108], [7, 120], [15, 105], [13, 111], [20, 107], [8, 117], [13, 116], [7, 116], [12, 118], [14, 119], [22, 116], [22, 124], [16, 122], [8, 117], [15, 121], [19, 105], [24, 112], [25, 113], [10, 113], [16, 114], [6, 109]], [[14, 121], [5, 116], [20, 107], [20, 117], [23, 105], [18, 112], [17, 107], [7, 117], [16, 124], [12, 115], [6, 125], [5, 110], [22, 108], [25, 124], [18, 109], [5, 125], [25, 124], [16, 123], [19, 109], [7, 121], [21, 117], [12, 109], [6, 120], [12, 108], [23, 124], [20, 120], [16, 125], [5, 113], [15, 116], [14, 118], [15, 123], [18, 116], [19, 110], [10, 121], [5, 120], [22, 124], [6, 117], [10, 123], [22, 113], [17, 115]], [[9, 111], [24, 109], [18, 123], [24, 107], [24, 108], [19, 120], [8, 109], [16, 120], [19, 118], [11, 111], [16, 121], [17, 105], [24, 114], [12, 112], [15, 107], [15, 108], [5, 115], [25, 112], [18, 115], [15, 123], [13, 115], [21, 114], [18, 123], [7, 112], [15, 113], [22, 115], [10, 108], [16, 108], [21, 117], [22, 114], [7, 107], [14, 124], [20, 117], [24, 114], [5, 121], [25, 115], [22, 107], [22, 109], [19, 118], [21, 111]], [[9, 114], [22, 110], [14, 116], [21, 120], [6, 120], [16, 113], [20, 121], [22, 124], [9, 116], [17, 116], [11, 108], [24, 115], [9, 117], [13, 118], [20, 114], [11, 123], [11, 125], [16, 110], [11, 122], [10, 108], [8, 114], [16, 105], [20, 113], [7, 109], [8, 125], [6, 123], [13, 116], [12, 123], [8, 118], [23, 120], [10, 114], [16, 112], [18, 115], [19, 108], [21, 105], [8, 108], [19, 109], [14, 107], [7, 119], [25, 113]], [[14, 113], [7, 115], [7, 110], [5, 106], [6, 115], [18, 110], [16, 122], [18, 120], [9, 105], [18, 124], [8, 111], [9, 110], [21, 109], [18, 124], [22, 122], [5, 109], [8, 124], [6, 123], [23, 110], [6, 111], [6, 121], [6, 115], [24, 116], [12, 118], [18, 120], [23, 122], [7, 106], [20, 105], [12, 116], [16, 111], [24, 112], [24, 118], [8, 115], [25, 112], [6, 119], [17, 110], [11, 118], [25, 109], [24, 105], [10, 125]], [[8, 118], [10, 116], [21, 110], [15, 119], [14, 113], [5, 119], [18, 124], [15, 112], [5, 107], [8, 116], [12, 122], [17, 121], [5, 115], [14, 116], [20, 124], [24, 115], [9, 109], [18, 121], [23, 117], [12, 114], [18, 125], [14, 121], [13, 109], [21, 118], [24, 108], [14, 106], [13, 124], [8, 111], [7, 105], [10, 105], [12, 110], [10, 125], [20, 121], [14, 110], [10, 110], [21, 122], [19, 123], [15, 112], [15, 109], [17, 117]], [[21, 111], [9, 121], [10, 116], [24, 115], [13, 107], [7, 107], [14, 107], [25, 109], [18, 117], [19, 125], [6, 117], [19, 114], [22, 111], [13, 110], [18, 121], [14, 105], [7, 107], [6, 114], [14, 123], [23, 120], [15, 110], [21, 115], [15, 118], [23, 118], [16, 116], [20, 110], [19, 110], [20, 109], [20, 119], [16, 113], [15, 105], [21, 114], [10, 108], [6, 120], [11, 117], [22, 105], [8, 120], [13, 116], [9, 112], [21, 105]], [[18, 111], [7, 111], [17, 120], [12, 119], [5, 110], [16, 123], [21, 112], [8, 115], [6, 118], [20, 123], [18, 121], [23, 114], [7, 112], [18, 117], [5, 116], [18, 118], [5, 112], [8, 108], [8, 105], [13, 105], [24, 125], [22, 109], [16, 120], [25, 120], [8, 122], [7, 115], [5, 113], [5, 124], [18, 115], [12, 113], [22, 107], [23, 108], [11, 115], [17, 123], [14, 110], [24, 111], [20, 117], [23, 120], [20, 115], [10, 112]]];
Q = [[57, 464], [58, 468], [67, 455], [57, 461], [56, 459], [56, 462], [62, 454], [57, 461]];
